p cnf 14 24
-4 -5 -10 0
-12 -22 0
-10 -24 0
-12 -24 0
-4 -5 -12 0
-27 0
-33 0
-39 0
-47 0
-1 -4 -10 0
-1 -4 -12 0
-1 -3 -4 0
-4 -5 -16 0
-16 -22 0
-16 -24 0
-1 -4 -16 0
-4 -7 -16 0
-4 -7 -10 0
-10 -22 0
-3 -24 0
-3 -4 -5 0
-4 -7 -12 0
-3 -4 -7 0
-3 -22 0
